solution status: optimal solution found
objective value:                     212897.620642869
d11(0,0)                                            1 	(obj:0)
d11(1,1)                                            1 	(obj:0)
d11(1,2)                                            1 	(obj:0)
d11(2,3)                                            1 	(obj:0)
d11(2,4)                                            1 	(obj:0)
d11(2,5)                                            1 	(obj:0)
d11(3,7)                                            1 	(obj:0)
d11(3,9)                                            1 	(obj:0)
d11(3,10)                                           1 	(obj:0)
d11(3,11)                                           1 	(obj:0)
d11(3,13)                                           1 	(obj:0)
d11(3,14)                                           1 	(obj:0)
d11(4,15)                                           1 	(obj:0)
d11(4,17)                                           1 	(obj:0)
d11(4,19)                                           1 	(obj:0)
d11(4,20)                                           1 	(obj:0)
d11(4,21)                                           1 	(obj:0)
d11(4,23)                                           1 	(obj:0)
d11(4,24)                                           1 	(obj:0)
d11(4,25)                                           1 	(obj:0)
d11(4,26)                                           1 	(obj:0)
d11(4,27)                                           1 	(obj:0)
d11(4,28)                                           1 	(obj:0)
d11(4,29)                                           1 	(obj:0)
d11(4,30)                                           1 	(obj:0)
d21(3,7)                                            1 	(obj:0)
d21(4,15)                                           1 	(obj:0)
d21(4,16)                                           1 	(obj:0)
d21(4,17)                                           1 	(obj:0)
d21(4,18)                                           1 	(obj:0)
d21(4,19)                                           1 	(obj:0)
d21(4,21)                                           1 	(obj:0)
d21(4,23)                                           1 	(obj:0)
STE(1,1)                             6477.74984888715 	(obj:0)
STE(0,0)                                        14175 	(obj:0)
STE(1,2)                             8135.99974777596 	(obj:0)
STE(2,3)                             3685.49994999833 	(obj:0)
STE(2,4)                             5343.74984888715 	(obj:0)
STE(2,5)                             5343.74984888715 	(obj:0)
STE(2,6)                             7001.99974777596 	(obj:0)
STE(3,7)                              893.25005110951 	(obj:0)
STE(3,8)                             2551.49994999833 	(obj:0)
STE(3,9)                                   2551.49995 	(obj:0)
STE(3,10)                            4209.74984888715 	(obj:0)
STE(3,11)                            2551.49994999833 	(obj:0)
STE(3,12)                            4209.74984888715 	(obj:0)
STE(3,13)                            4209.74984888885 	(obj:0)
STE(3,14)                            5867.99974777596 	(obj:0)
STE(4,15)                           -1898.99984777934 	(obj:0)
STE(4,16)                            -240.74994889049 	(obj:0)
STE(4,17)                           -240.749948890519 	(obj:0)
STE(4,18)                            1417.49994999833 	(obj:0)
STE(4,19)                           -240.749948888846 	(obj:0)
STE(4,20)                                  1417.49995 	(obj:0)
STE(4,21)                            1417.49994999811 	(obj:0)
STE(4,22)                            3075.74984888715 	(obj:0)
STE(4,23)                           -240.749948890518 	(obj:0)
STE(4,24)                                  1417.49995 	(obj:0)
STE(4,25)                                  1417.49995 	(obj:0)
STE(4,26)                            3075.74984888715 	(obj:0)
STE(4,27)                                  1417.49995 	(obj:0)
STE(4,28)                            3075.74984888882 	(obj:0)
STE(4,29)                            3075.74984888712 	(obj:0)
STE(4,30)                            4733.99974777596 	(obj:0)
y1(3,11)                             1492.42490899994 	(obj:0)
y1(3,13)                             1492.42490899841 	(obj:0)
y1(4,15)                             1492.42490899996 	(obj:0)
y1(4,17)                             1492.42490899996 	(obj:0)
y1(4,19)                             1492.42490899996 	(obj:0)
y1(4,21)                             1492.42490900005 	(obj:0)
y1(4,23)                             1492.42490899996 	(obj:0)
y1(4,24)                         -1.50437699630857e-009 	(obj:0)
y1(4,25)                             1492.42490899843 	(obj:0)
y1(4,27)                             1492.42490899996 	(obj:0)
y1(4,29)                             1492.42490899996 	(obj:0)
AVE(1)                               3265.91696791192 	(obj:0)
AVE(2)                               3332.74178563731 	(obj:0)
WB(3)                                3444.11697932125 	(obj:0)
AVE(3)                               3444.11697932125 	(obj:0)
AVE(4)                               3399.56511093778 	(obj:0)
WG(1)                                3265.91696791192 	(obj:10)
WG(2)                                3332.74178563734 	(obj:10)
WG(4)                                3399.56511093778 	(obj:10)
BG(1)                                5434.96759943666 	(obj:10)
BG(2)                                 863.55071334223 	(obj:10)
BG(3)                                4196.29249897957 	(obj:10)
BG(4)                                796.727388041812 	(obj:10)
y1(1,1)                              5906.92513600157 	(obj:0)
y1(1,2)                              4414.50022700163 	(obj:0)
y1(2,3)                              1492.42490899994 	(obj:0)
y1(2,5)                              1492.42490899994 	(obj:0)
y1(3,7)                              1492.42490899994 	(obj:0)
y1(3,9)                              1492.42490899843 	(obj:0)
